18 59 98 16 14 92 6 88 19 70 31 63 32 71 66 30 1 99 89 93 43 57 2 56 22 75 54 24 3 34 81 51 33 26 4 36 49 48 82 
80 47 64 41 76 29 90 62 20 84 91 42 87 53 95 85 97 27 10 7 46 74 55 68 40 13 94 58 96 61 5 
35 45 83 69 37 15 23 79 44 38 86 28 8 52 17 60 50 21 73 72 39 12 77 65 78 25 
67 9 11 100 

